(declare-fun temp10401_1 () (_ BitVec 64))
(declare-fun ARGNAME_use_input_stats_NAMEEND () (_ BitVec 64))
(declare-fun temp10401_2 () (_ BitVec 64))
(declare-fun var985537 () (_ BitVec 64))
(declare-fun var985545 () (_ BitVec 64))
(declare-fun temp10401_3 () (_ BitVec 64))
(declare-fun temp10401_4 () (_ BitVec 64))
(declare-fun ARGNAME_input_NAMEEND_DIMSIZE
             ()
             (Array (_ BitVec 64) (_ BitVec 64)))
(declare-fun temp10401_5 () (_ BitVec 64))
(declare-fun temp10401_6 () (_ BitVec 64))
(declare-fun temp10401_7 () (_ BitVec 64))
(declare-fun temp10401_8 () (_ BitVec 64))
(declare-fun temp10401_9 () (_ BitVec 64))
(declare-fun temp10401_10 () (_ BitVec 64))
(declare-fun temp10401_11 () (_ BitVec 64))
(declare-fun temp10401_12 () (_ BitVec 64))
(declare-fun temp10401_13 () (_ BitVec 64))
(declare-fun temp10401_14 () (_ BitVec 64))
(declare-fun temp10401_15 () (_ BitVec 64))
(declare-fun temp10401_16 () (_ BitVec 64))
(declare-fun temp10401_17 () (_ BitVec 64))
(declare-fun temp10401_18 () (_ BitVec 64))
(declare-fun temp10401_19 () (_ BitVec 64))
(declare-fun temp10401_20 () (_ BitVec 64))
(declare-fun temp10401_21 () (_ BitVec 64))
(declare-fun temp10401_22 () (_ BitVec 64))
(declare-fun temp10401_23 () (_ BitVec 64))
(declare-fun ARGNAME_input_NAMEEND_DIM () (_ BitVec 64))
(declare-fun temp10401_24 () (_ BitVec 64))
(declare-fun temp10401_25 () (_ BitVec 64))
(declare-fun temp10401_26 () (_ BitVec 64))
(declare-fun temp10401_27 () (_ BitVec 64))
(declare-fun temp10401_28 () (_ BitVec 64))
(declare-fun var2039185 () (_ BitVec 64))
(declare-fun temp10401_29 () (_ BitVec 64))
(declare-fun var2235793 () (_ BitVec 64))
(declare-fun temp10401_30 () (_ BitVec 64))
(declare-fun temp10401_31 () (_ BitVec 64))
(declare-fun temp10401_32 () (_ BitVec 64))
(declare-fun temp10401_33 () (_ BitVec 64))
(declare-fun temp10401_34 () (_ BitVec 64))
(declare-fun var2753483 () (_ BitVec 64))
(declare-fun temp10401_35 () (_ BitVec 64))
(declare-fun var2756010 () (_ BitVec 64))
(declare-fun temp10401_36 () (_ BitVec 64))
(declare-fun temp10401_38 () (_ BitVec 64))
(declare-fun temp10401_37 () (_ BitVec 64))
(declare-fun temp10401_39 () (_ BitVec 64))
(declare-fun var2756375 () (_ BitVec 64))
(declare-fun temp10401_41 () (_ BitVec 64))
(declare-fun temp10401_40 () (_ BitVec 64))
(declare-fun temp10401_42 () (_ BitVec 64))
(declare-fun temp10401_43 () (_ BitVec 64))
(declare-fun temp10401_45 () (_ BitVec 64))
(declare-fun temp10401_44 () (_ BitVec 64))
(declare-fun temp10401_47 () (_ BitVec 64))
(declare-fun temp10401_46 () (_ BitVec 64))
(declare-fun temp10401_48 () (_ BitVec 64))
(declare-fun temp10401_49 () (_ BitVec 64))
(declare-fun temp10401_51 () (_ BitVec 64))
(declare-fun temp10401_50 () (_ BitVec 64))
(declare-fun temp10401_53 () (_ BitVec 64))
(declare-fun temp10401_52 () (_ BitVec 64))
(declare-fun temp10401_54 () (_ BitVec 64))
(declare-fun var9439681 () (_ BitVec 64))
(declare-fun var9439689 () (_ BitVec 64))
(assert (= temp10401_1 #x0000000000000001))
(assert (= ARGNAME_use_input_stats_NAMEEND temp10401_1))
(assert (= temp10401_2 #x0000000000000002))
(assert (= var985537 temp10401_2))
(assert (= var985545 var985537))
(assert (= temp10401_3 #x0000000000000000))
(assert (= temp10401_4 temp10401_3))
(assert (= temp10401_5 (select ARGNAME_input_NAMEEND_DIMSIZE temp10401_4)))
(assert (= temp10401_6 #x0000000000000001))
(assert (= temp10401_7 temp10401_6))
(assert (= temp10401_8 (select ARGNAME_input_NAMEEND_DIMSIZE temp10401_7)))
(assert (= temp10401_9 #x0000000000000002))
(assert (= temp10401_10 temp10401_9))
(assert (= temp10401_11 (select ARGNAME_input_NAMEEND_DIMSIZE temp10401_10)))
(assert (= temp10401_12 #x0000000000000003))
(assert (= temp10401_13 temp10401_12))
(assert (= temp10401_14 (select ARGNAME_input_NAMEEND_DIMSIZE temp10401_13)))
(assert (= temp10401_15 #x0000000000000004))
(assert (= temp10401_16 temp10401_15))
(assert (= temp10401_17 (select ARGNAME_input_NAMEEND_DIMSIZE temp10401_16)))
(assert (= temp10401_18 #x0000000000000005))
(assert (= temp10401_19 temp10401_18))
(assert (= temp10401_20 (select ARGNAME_input_NAMEEND_DIMSIZE temp10401_19)))
(assert (= temp10401_21 #x0000000000000000))
(assert (= temp10401_22 temp10401_21))
(assert (= temp10401_23 (select ARGNAME_input_NAMEEND_DIMSIZE temp10401_22)))
(assert (bvsgt ARGNAME_input_NAMEEND_DIM temp10401_21))
(assert (bvsge temp10401_21 (bvneg ARGNAME_input_NAMEEND_DIM)))
(assert (= temp10401_24 #x0000000000000001))
(assert (= temp10401_25 temp10401_24))
(assert (= temp10401_26 (select ARGNAME_input_NAMEEND_DIMSIZE temp10401_25)))
(assert (bvsgt ARGNAME_input_NAMEEND_DIM temp10401_24))
(assert (bvsge temp10401_24 (bvneg ARGNAME_input_NAMEEND_DIM)))
(assert (= temp10401_27 temp10401_26))
(assert (= temp10401_28 #x0000000000000001))
(assert (= var2039185 temp10401_28))
(assert (= temp10401_29 #x0000000000000000))
(assert (= var2235793 temp10401_29))
(assert (= temp10401_30 temp10401_23))
(assert (= temp10401_31 temp10401_23))
(assert (= temp10401_32 temp10401_23))
(assert (= temp10401_33 temp10401_23))
(assert (= temp10401_34 #x0000000000000001))
(assert (= var2753483 temp10401_34))
(assert (= temp10401_35 #x0000000000000000))
(assert (= var2756010 temp10401_35))
(assert (= temp10401_36 #x0000000000000000))
(assert (= var2756010 temp10401_36))
(assert (= temp10401_38 #x0000000000000000))
(assert (= temp10401_37 temp10401_38))
(assert (= temp10401_39 #x0000000000000001))
(assert (= var2756375 (bvxor ARGNAME_use_input_stats_NAMEEND temp10401_39)))
(assert (= temp10401_41 #x0000000000000000))
(assert (= temp10401_40 temp10401_41))
(assert (= temp10401_42 temp10401_23))
(assert (= temp10401_43 temp10401_26))
(assert (= temp10401_45 #x0000000000000002))
(assert (= temp10401_44 temp10401_45))
(assert (= temp10401_47 #x0000000000000000))
(assert (= temp10401_46 temp10401_47))
(assert (= temp10401_48 temp10401_23))
(assert (= temp10401_49 temp10401_26))
(assert (= temp10401_51 #x0000000000000002))
(assert (= temp10401_50 temp10401_51))
(assert (= temp10401_53 #x0000000000000000))
(assert (= temp10401_52 temp10401_53))
(assert (= temp10401_54 #x0000000000000002))
(assert (= var9439681 temp10401_54))
(assert (= var9439689 var9439681))
(model-add temp10401_1 () (_ BitVec 64) #x0000000000000001)
(model-add ARGNAME_use_input_stats_NAMEEND () (_ BitVec 64) #x0000000000000001)






